a280
2862
118
117
116
115
114
113
112
111
110
109
108
107
106
105
104
103
102
101
100
99
98
97
96
95
94
93
92
91
90
89
88
87
86
85
84
83
82
81
80
79
78
77
76
75
74
73
72
71
70
69
68
67
66
65
64
63
62
61
60
59
58
57
56
55
54
53
52
51
50
49
48
47
46
45
44
43
42
41
40
39
38
37
36
35
34
33
32
31
30
125
124
123
126
29
28
27
26
22
25
23
24
17
18
19
20
21
128
127
129
130
131
132
133
134
270
269
135
136
268
267
137
266
265
264
263
257
254
253
255
256
258
262
261
260
259
278
279
3
4
277
276
275
274
273
272
271
16
15
14
13
12
11
10
9
8
7
6
5
1
280
2
242
243
248
249
247
244
241
240
245
239
238
237
236
235
233
234
226
225
224
223
222
221
220
219
217
216
213
214
215
218
227
228
229
232
231
246
230
251
250
252
209
210
211
212
207
208
206
205
204
203
202
201
200
199
198
197
196
195
194
193
192
191
190
189
188
187
186
185
184
183
182
180
179
149
148
147
146
145
144
143
142
141
140
139
138
150
178
177
176
181
175
161
162
163
164
165
166
167
168
169
170
171
172
173
174
160
159
158
151
152
156
153
155
154
122
121
120
119
157